(set-info :source |
 Generated by Alive 0.1
 More info in N. P. Lopes, D. Menendez, S. Nagarakatte, J. Regehr.
 Provably Correct Peephole Optimizations with Alive. In PLDI'15.
|)

(set-info :status unknown)
(declare-fun %Op0 () (_ BitVec 3))
(declare-fun C () (_ BitVec 3))
(declare-fun |ana_MaskedValueIsZero(%Op0, ((1 << C) - 1))| () (_ BitVec 1))
(assert
 (let (($x271566 (= |ana_MaskedValueIsZero(%Op0, ((1 << C) - 1))| (_ bv1 1))))
 (let (($x219773 (=> $x271566 (= (bvand %Op0 (bvsub (bvshl (_ bv1 3) C) (_ bv1 3))) (_ bv0 3)))))
 (let (($x44103 (bvult C (_ bv3 3))))
 (and $x44103 $x219773 $x271566 (not (= (bvshl (bvashr %Op0 C) C) %Op0)))))))
(check-sat)
